(set-info :source |
 Generated by Alive 0.1
 More info in N. P. Lopes, D. Menendez, S. Nagarakatte, J. Regehr.
 Provably Correct Peephole Optimizations with Alive. In PLDI'15.
|)

(set-info :status unknown)
(declare-fun |ana_MaskedValueIsZero(%Op0, -2)| () (_ BitVec 1))
(declare-fun %Op0 () (_ BitVec 14))
(assert
 (let (($x155961 (= |ana_MaskedValueIsZero(%Op0, -2)| (_ bv1 1))))
 (let (($x133610 (=> $x155961 (= (bvand %Op0 (_ bv16382 14)) (_ bv0 14)))))
 (and $x133610 $x155961 false))))
(check-sat)
